# Solution for model GasLib-40
# Objective value = 2.2275021254292007e+01
loadshed[innode_1] 0
loadshed[innode_2] 0
loadshed[innode_3] 0
loadshed[innode_4] 0
loadshed[innode_5] 0
loadshed[innode_6] 0
loadshed[innode_7] 0
loadshed[innode_8] 0
loadshed[source_1] -2.3113283785755168e-01
loadshed[source_2] -5.9369927319114613e-02
loadshed[source_3] 4.3140340478200045e-01
loadshed[sink_1] 0
loadshed[sink_2] 0
loadshed[sink_3] 0
loadshed[sink_4] 0
loadshed[sink_5] 0
loadshed[sink_6] 0
loadshed[sink_7] 0
loadshed[sink_8] 0
loadshed[sink_9] 0
loadshed[sink_10] 0
loadshed[sink_11] 0
loadshed[sink_12] 1
loadshed[sink_13] 0
loadshed[sink_14] 0
loadshed[sink_15] 0
loadshed[sink_16] 0
loadshed[sink_17] 0
loadshed[sink_18] 0
loadshed[sink_19] 0
loadshed[sink_20] 0
loadshed[sink_21] 3.6203951618600805e-01
loadshed[sink_22] 0
loadshed[sink_23] 0
loadshed[sink_24] 0
loadshed[sink_25] 0
loadshed[sink_26] 0
loadshed[sink_27] 0
loadshed[sink_28] 0
loadshed[sink_29] 0
flow[source_1,sink_3] 1.9463013231824419e+02
flow[innode_1,sink_16] 1.6354166666666970e+01
flow[innode_6,sink_13] 2.4589572985167791e+01
flow[sink_13,sink_14] 8.2354063185011217e+00
flow[sink_14,sink_10] -8.1187603481655461e+00
flow[sink_25,sink_26] 1.5336302943926157e+02
flow[sink_26,sink_9] 8.1770833333333655e+01
flow[sink_9,sink_18] 6.5416666666666671e+01
flow[sink_26,sink_4] 5.5238029439261254e+01
flow[sink_4,sink_20] -1.6550183945372765e+01
flow[sink_18,sink_6] 4.9062500000000313e+01
flow[sink_25,innode_8] -1.6192179898490781e+02
flow[sink_6,sink_7] 0
flow[sink_6,sink_22] 3.2708333333333641e+01
flow[sink_7,sink_24] 2.6787478745708004e+01
flow[sink_22,sink_1] 1.6354166666666970e+01
flow[sink_24,sink_21] 1.0433312079041327e+01
flow[sink_21,sink_12] 0
flow[sink_7,sink_5] -4.3141645412374672e+01
flow[sink_5,sink_17] -5.9495812079041343e+01
flow[sink_17,sink_4] -5.5434046717967334e+01
flow[sink_17,sink_8] -2.0415932027740684e+01
flow[sink_3,sink_23] 16.3541666666697
flow[sink_8,sink_20] -3.6770098694407352e+01
flow[sink_25,sink_20] 6.9674449306446888e+01
flow[sink_25,sink_15] -1.0205941941263526e+02
flow[sink_15,sink_29] -6.5645697183780541e+01
flow[sink_29,sink_28] 1.6354166666667879e+01
flow[sink_29,sink_2] 6.9122055562188066e+01
flow[sink_2,sink_15] 5.2767888895521395e+01
flow[sink_29,innode_7] -1.6747608607930309e+02
flow[innode_4,sink_19] 8.9889593681512224e+01
flow[sink_19,innode_3] 0
flow[innode_4,innode_5] 0
flow[sink_27,innode_5] 0
flow[sink_27,sink_19] -1.6354166666679703e+01
flow[sink_10,sink_11] 3.2708333333333641e+01
flow[sink_10,innode_2] -5.7181260348165850e+01
flow[sink_10,innode_3] 0
flow[innode_6,sink_25] -2.4589572985167791e+01
flow[sink_11,innode_1] 1.6354166666666970e+01
flow[sink_19,innode_2] 5.7181260348165850e+01
flow[source_3,innode_4] 8.9889593681512224e+01
flow[source_2,innode_7] 1.6747608607930309e+02
flow[sink_3,innode_8] 1.6192179898490781e+02
pressure[innode_1] 7.4197626436627743e+01
pressure[innode_2] 7.7371593519971825e+01
pressure[innode_3] 7.4349327744231289e+01
pressure[innode_4] 81.01325
pressure[innode_5] 7.7020463522828322e+01
pressure[innode_6] 7.4115617947364228e+01
pressure[innode_7] 81.01325
pressure[innode_8] 80.3626758190656
pressure[source_1] 81.01325
pressure[source_2] 81.01325
pressure[source_3] 81.01325
pressure[sink_1] 5.2641992015512585e+01
pressure[sink_2] 74.7829811078307
pressure[sink_3] 80.3626758190656
pressure[sink_4] 5.6291243823759636e+01
pressure[sink_5] 4.9740729394510808e+01
pressure[sink_6] 5.4743069625899956e+01
pressure[sink_7] 3.1798456435669635e+01
pressure[sink_8] 5.4943083501011557e+01
pressure[sink_9] 5.8420154429358242e+01
pressure[sink_10] 7.4349327744231289e+01
pressure[sink_11] 7.4197626436627743e+01
pressure[sink_12] 1.01325
pressure[sink_13] 7.3980059740796392e+01
pressure[sink_14] 7.3965321779687926e+01
pressure[sink_15] 74.6107055804422
pressure[sink_16] 7.3175976601810063e+01
pressure[sink_17] 5.4172737346317746e+01
pressure[sink_18] 5.6053184454159585e+01
pressure[sink_19] 7.7371593519971825e+01
pressure[sink_20] 5.7505442272147576e+01
pressure[sink_21] 1.01325
pressure[sink_22] 5.3705761157867592e+01
pressure[sink_23] 8.0197957807405814e+01
pressure[sink_24] 1.1287892375723676e+00
pressure[sink_25] 7.4115617947364228e+01
pressure[sink_26] 6.3314349849069593e+01
pressure[sink_27] 7.7020463522828322e+01
pressure[sink_28] 76.2386385105749
pressure[sink_29] 7.6533920784192077e+01
interdiction[source_1,sink_3] 0
interdiction[innode_1,sink_16] 0
interdiction[innode_6,sink_13] 0
interdiction[sink_13,sink_14] 0
interdiction[sink_14,sink_10] 0
interdiction[sink_25,sink_26] 0
interdiction[sink_26,sink_9] 0
interdiction[sink_9,sink_18] 0
interdiction[sink_26,sink_4] 0
interdiction[sink_4,sink_20] 0
interdiction[sink_18,sink_6] 0
interdiction[sink_25,innode_8] 0
interdiction[sink_6,sink_7] 1
interdiction[sink_6,sink_22] 0
interdiction[sink_7,sink_24] 0
interdiction[sink_22,sink_1] 0
interdiction[sink_24,sink_21] 0
interdiction[sink_21,sink_12] 0
interdiction[sink_7,sink_5] 0
interdiction[sink_5,sink_17] 0
interdiction[sink_17,sink_4] 0
interdiction[sink_17,sink_8] 0
interdiction[sink_3,sink_23] 0
interdiction[sink_8,sink_20] 0
interdiction[sink_25,sink_20] 0
interdiction[sink_25,sink_15] 0
interdiction[sink_15,sink_29] 0
interdiction[sink_29,sink_28] 0
interdiction[sink_29,sink_2] 0
interdiction[sink_2,sink_15] 0
interdiction[sink_29,innode_7] 0
interdiction[innode_4,sink_19] 0
interdiction[sink_19,innode_3] 1
interdiction[innode_4,innode_5] 1
interdiction[sink_27,innode_5] 0
interdiction[sink_27,sink_19] 0
interdiction[sink_10,sink_11] 0
interdiction[sink_10,innode_2] 0
interdiction[sink_10,innode_3] 0
interdiction[innode_6,sink_25] 0
interdiction[sink_11,innode_1] 0
interdiction[sink_19,innode_2] 0
interdiction[source_3,innode_4] 0
interdiction[source_2,innode_7] 0
interdiction[sink_3,innode_8] 0
WCcheckFlow[source_1,sink_3] 39
WCcheckFlow[innode_1,sink_16] 1
WCcheckFlow[innode_6,sink_13] 13
WCcheckFlow[sink_13,sink_14] 12
WCcheckFlow[sink_14,sink_10] 11
WCcheckFlow[sink_25,sink_26] 15
WCcheckFlow[sink_26,sink_9] 5
WCcheckFlow[sink_9,sink_18] 4
WCcheckFlow[sink_26,sink_4] 9
WCcheckFlow[sink_4,sink_20] 1
WCcheckFlow[sink_18,sink_6] 3
WCcheckFlow[sink_25,innode_8] -36
WCcheckFlow[sink_6,sink_7] 0
WCcheckFlow[sink_6,sink_22] 2
WCcheckFlow[sink_7,sink_24] 3
WCcheckFlow[sink_22,sink_1] 1
WCcheckFlow[sink_24,sink_21] 2
WCcheckFlow[sink_21,sink_12] 1
WCcheckFlow[sink_7,sink_5] -4
WCcheckFlow[sink_5,sink_17] -5
WCcheckFlow[sink_17,sink_4] -7
WCcheckFlow[sink_17,sink_8] 1
WCcheckFlow[sink_3,sink_23] 1
WCcheckFlow[sink_8,sink_20] 0
WCcheckFlow[sink_25,sink_20] 0
WCcheckFlow[sink_25,sink_15] 6
WCcheckFlow[sink_15,sink_29] 5
WCcheckFlow[sink_29,sink_28] 1
WCcheckFlow[sink_29,sink_2] 1
WCcheckFlow[sink_2,sink_15] 0
WCcheckFlow[sink_29,innode_7] 2
WCcheckFlow[innode_4,sink_19] -2
WCcheckFlow[sink_19,innode_3] 0
WCcheckFlow[innode_4,innode_5] 0
WCcheckFlow[sink_27,innode_5] 1
WCcheckFlow[sink_27,sink_19] -2
WCcheckFlow[sink_10,sink_11] 3
WCcheckFlow[sink_10,innode_2] 6
WCcheckFlow[sink_10,innode_3] 1
WCcheckFlow[innode_6,sink_25] -14
WCcheckFlow[sink_11,innode_1] 2
WCcheckFlow[sink_19,innode_2] -5
WCcheckFlow[source_3,innode_4] -1
WCcheckFlow[source_2,innode_7] -1
WCcheckFlow[sink_3,innode_8] 37
